container_length = 2000;
container_width = 3000;
container_height = 1000;
n = 8;
boxes = [|400, 375, 250, 29
         |400, 400, 150, 37
         |300, 300, 200, 34
         |500, 375, 400, 19
         |800, 275, 200, 16
         |450, 350, 350, 17
         |900, 200, 200, 25
         |200, 200, 125, 23|];
